c This is the enc1_simplified file generate by sty
p cnf 44 48
 1 2 0
 -1 -2 0
 5 6 0
 -5 -6 0
 11 12 0
 -11 -12 0
 15 16 0
 -15 -16 0
 21 22 0
 -21 -22 0
 27 28 0
 -27 -28 0
 29 30 0
 -29 -30 0
 35 36 0
 -35 -36 0
 -1 3 0
 -2 4 0
 -5 -1 7 0
 -5 -2 8 0
 -6 -1 9 0
 -6 -2 10 0
 -11 13 0
 -12 14 0
 -15 -11 17 0
 -15 -12 18 0
 -16 -11 19 0
 -16 -12 20 0
 -21 -11 23 0
 -21 -12 24 0
 -22 -11 25 0
 -22 -12 26 0
 -27 -6 -16 0
 -28 -5 -15 0
 -28 -5 -16 0
 -28 -6 -15 0
 -29 -27 31 0
 -29 -28 32 0
 -30 -27 33 0
 -30 -28 34 0
 -35 -27 -21 37 0
 -35 -27 -22 38 0
 -35 -28 -21 39 0
 -35 -28 -22 40 0
 -36 -27 -21 41 0
 -36 -27 -22 42 0
 -36 -28 -21 43 0
 -36 -28 -22 44 0
